solution status: time limit reached
objective value:                                 -173
x_279                                               1 	(obj:-1)
x_107                                               1 	(obj:-1)
x_2042                                              1 	(obj:-1)
x_2048                                              1 	(obj:-1)
x_1624                                              1 	(obj:-1)
x_1191                                              1 	(obj:-1)
x_1193                                              1 	(obj:-1)
x_1172                                              1 	(obj:-1)
x_1005                                              1 	(obj:-1)
x_1284                                              1 	(obj:-1)
x_1579                                              1 	(obj:-1)
x_688                                               1 	(obj:-1)
x_685                                               1 	(obj:-1)
x_1221                                              1 	(obj:-1)
x_1343                                              1 	(obj:-1)
x_454                                               1 	(obj:-1)
x_378                                               1 	(obj:-1)
x_371                                               1 	(obj:-1)
x_397                                               1 	(obj:-1)
x_242                                               1 	(obj:-1)
x_1502                                              1 	(obj:-1)
x_1613                                              1 	(obj:-1)
x_1763                                              1 	(obj:-1)
x_1140                                              1 	(obj:-1)
x_1141                                              1 	(obj:-1)
x_692                                               1 	(obj:-1)
x_543                                               1 	(obj:-1)
x_548                                               1 	(obj:-1)
x_1784                                              1 	(obj:-1)
x_415                                               1 	(obj:-1)
x_360                                               1 	(obj:-1)
x_385                                               1 	(obj:-1)
x_253                                               1 	(obj:-1)
x_166                                               1 	(obj:-1)
x_163                                               1 	(obj:-1)
x_1811                                              1 	(obj:-1)
x_1603                                              1 	(obj:-1)
x_809                                               1 	(obj:-1)
x_1774                                              1 	(obj:-1)
x_1154                                              1 	(obj:-1)
x_1150                                              1 	(obj:-1)
x_1554                                              1 	(obj:-1)
x_56                                                1 	(obj:-1)
x_1807                                              1 	(obj:-1)
x_1802                                              1 	(obj:-1)
x_814                                               1 	(obj:-1)
x_1545                                              1 	(obj:-1)
x_1522                                              1 	(obj:-1)
x_1990                                              1 	(obj:-1)
x_1993                                              1 	(obj:-1)
x_1495                                              1 	(obj:-1)
x_426                                               1 	(obj:-1)
x_1122                                              1 	(obj:-1)
x_526                                               1 	(obj:-1)
x_529                                               1 	(obj:-1)
x_437                                               1 	(obj:-1)
x_1960                                              1 	(obj:-1)
x_1                                                 1 	(obj:-1)
x_140                                               1 	(obj:-1)
x_931                                               1 	(obj:-1)
x_1952                                              1 	(obj:-1)
x_827                                               1 	(obj:-1)
x_790                                               1 	(obj:-1)
x_1718                                              1 	(obj:-1)
x_1135                                              1 	(obj:-1)
x_1009                                              1 	(obj:-1)
x_620                                               1 	(obj:-1)
x_11                                                1 	(obj:-1)
x_201                                               1 	(obj:-1)
x_207                                               1 	(obj:-1)
x_1576                                              1 	(obj:-1)
x_920                                               1 	(obj:-1)
x_1925                                              1 	(obj:-1)
x_1371                                              1 	(obj:-1)
x_504                                               1 	(obj:-1)
x_1100                                              1 	(obj:-1)
x_1459                                              1 	(obj:-1)
x_1723                                              1 	(obj:-1)
x_216                                               1 	(obj:-1)
x_1854                                              1 	(obj:-1)
x_843                                               1 	(obj:-1)
x_849                                               1 	(obj:-1)
x_1039                                              1 	(obj:-1)
x_759                                               1 	(obj:-1)
x_1113                                              1 	(obj:-1)
x_1949                                              1 	(obj:-1)
x_908                                               1 	(obj:-1)
x_1845                                              1 	(obj:-1)
x_1844                                              1 	(obj:-1)
x_852                                               1 	(obj:-1)
x_742                                               1 	(obj:-1)
x_1054                                              1 	(obj:-1)
x_1698                                              1 	(obj:-1)
x_1279                                              1 	(obj:-1)
x_615                                               1 	(obj:-1)
x_1476                                              1 	(obj:-1)
x_1304                                              1 	(obj:-1)
x_20                                                1 	(obj:-1)
x_187                                               1 	(obj:-1)
x_861                                               1 	(obj:-1)
x_880                                               1 	(obj:-1)
x_886                                               1 	(obj:-1)
x_771                                               1 	(obj:-1)
x_71                                                1 	(obj:-1)
x_1045                                              1 	(obj:-1)
x_1687                                              1 	(obj:-1)
x_1689                                              1 	(obj:-1)
x_1468                                              1 	(obj:-1)
x_1313                                              1 	(obj:-1)
x_1318                                              1 	(obj:-1)
x_1337                                              1 	(obj:-1)
x_967                                               1 	(obj:-1)
x_2037                                              1 	(obj:-1)
x_2031                                              1 	(obj:-1)
x_1244                                              1 	(obj:-1)
x_898                                               1 	(obj:-1)
x_762                                               1 	(obj:-1)
x_1962                                              1 	(obj:-1)
x_1075                                              1 	(obj:-1)
x_1678                                              1 	(obj:-1)
x_1419                                              1 	(obj:-1)
x_1324                                              1 	(obj:-1)
x_1256                                              1 	(obj:-1)
x_1258                                              1 	(obj:-1)
x_303                                               1 	(obj:-1)
x_306                                               1 	(obj:-1)
x_473                                               1 	(obj:-1)
x_1895                                              1 	(obj:-1)
x_959                                               1 	(obj:-1)
x_2004                                              1 	(obj:-1)
x_714                                               1 	(obj:-1)
x_1660                                              1 	(obj:-1)
x_1089                                              1 	(obj:-1)
x_1408                                              1 	(obj:-1)
x_446                                               1 	(obj:-1)
x_37                                                1 	(obj:-1)
x_645                                               1 	(obj:-1)
x_648                                               1 	(obj:-1)
x_330                                               1 	(obj:-1)
x_1889                                              1 	(obj:-1)
x_1887                                              1 	(obj:-1)
x_1882                                              1 	(obj:-1)
x_86                                                1 	(obj:-1)
x_1657                                              1 	(obj:-1)
x_1434                                              1 	(obj:-1)
x_451                                               1 	(obj:-1)
x_1509                                              1 	(obj:-1)
x_659                                               1 	(obj:-1)
x_996                                               1 	(obj:-1)
x_1743                                              1 	(obj:-1)
x_578                                               1 	(obj:-1)
x_570                                               1 	(obj:-1)
x_1425                                              1 	(obj:-1)
x_1424                                              1 	(obj:-1)
x_737                                               1 	(obj:-1)
x_736                                               1 	(obj:-1)
x_1358                                              1 	(obj:-1)
x_1351                                              1 	(obj:-1)
x_1515                                              1 	(obj:-1)
x_357                                               1 	(obj:-1)
x_352                                               1 	(obj:-1)
x_281                                               1 	(obj:-1)
x_284                                               1 	(obj:-1)
x_262                                               1 	(obj:-1)
x_1564                                              1 	(obj:-1)
x_987                                               1 	(obj:-1)
x_110                                               1 	(obj:-1)
x_113                                               1 	(obj:-1)
x_565                                               1 	(obj:-1)
x_725                                               1 	(obj:-1)
x_1746                                              1 	(obj:-1)
x_42                                                1 	(obj:-1)
x_1362                                              1 	(obj:-1)
